32	0

0	2	2	3
1	1	4
3	1	4
4	2	5	7
7	1	6
5	1	8
9	1	8
9	1	9
10	2	10	11
2	2	12	13
6	1	12
3	1	14
8	1	14
1	2	15	16
10	1	17
5	1	17
6	1	18
6	1	19
5	2	20	21
3	1	22
8	1	22
4	2	23	24
5	1	25
9	1	25
3	1	26
9	1	27
10	2	28	29
8	1	30
10	1	31
8	1	31
7	1	32
0	0
